
Gurobi 11.0.1 (win64) logging started Sat Mar 16 13:00:20 2024

Set parameter LogFile to value "res/logfile/s250r10log.txt"
Gurobi Optimizer version 11.0.1 build v11.0.1rc0 (win64 - Windows 11.0 (22621.2))

CPU model: AMD Ryzen Threadripper PRO 5975WX 32-Cores, instruction set [SSE2|AVX|AVX2]
Thread count: 32 physical cores, 64 logical processors, using up to 10 threads

Optimize a model with 20684 rows, 273142 columns and 2710901 nonzeros
Model fingerprint: 0x477c54ef
Variable types: 3 continuous, 273139 integer (273139 binary)
Coefficient statistics:
  Matrix range     [1e+00, 4e+04]
  Objective range  [5e-05, 2e-03]
  Bounds range     [1e+00, 2e+04]
  RHS range        [1e+00, 9e+04]
Presolve removed 12761 rows and 3528 columns
Presolve time: 3.63s
Presolved: 7923 rows, 269614 columns, 979230 nonzeros
Crushed 1204 out of 4301 user cuts to presolved model
Variable types: 0 continuous, 269614 integer (269611 binary)
Deterministic concurrent LP optimizer: primal simplex, dual simplex, and barrier
Showing barrier log only...

Root barrier log...

Ordering time: 0.22s

Barrier statistics:
 AA' NZ     : 4.967e+05
 Factor NZ  : 1.523e+06 (roughly 120 MB of memory)
 Factor Ops : 7.060e+08 (less than 1 second per iteration)
 Threads    : 7

                  Objective                Residual
Iter       Primal          Dual         Primal    Dual     Compl     Time
   0  -1.39609633e+05 -8.71539287e+06  2.97e+07 1.24e-02  1.87e+03     5s
   1  -1.12240308e+05 -8.29133749e+06  2.39e+07 7.41e-01  1.53e+03     5s
   2  -7.24508579e+04 -8.26523157e+06  1.54e+07 6.76e-01  9.90e+02     5s
   3  -2.90209900e+04 -7.56184631e+06  6.18e+06 2.11e-01  4.01e+02     5s
   4  -1.00162391e+04 -5.21912969e+06  2.13e+06 1.84e-14  1.45e+02     5s
   5  -4.30034603e+03 -3.54276779e+06  9.16e+05 4.62e-13  6.27e+01     5s
   6  -1.78327564e+03 -1.70404416e+06  3.80e+05 5.54e-13  2.51e+01     5s
   7  -7.32517920e+02 -9.90619854e+05  1.56e+05 1.04e-12  1.04e+01     6s
   8  -2.36668505e+02 -2.86980930e+05  5.06e+04 4.26e-13  3.10e+00     6s
   9  -9.76902041e+01 -1.11861030e+05  2.09e+04 1.44e-12  1.19e+00     6s
  10  -6.58241179e+01 -9.87006611e+04  1.40e+04 8.95e-13  8.37e-01     6s
  11  -1.70832433e+01 -6.17414919e+04  3.63e+03 9.01e-11  2.76e-01     6s
  12  -1.40453859e+01 -3.94147937e+04  2.97e+03 7.98e-11  1.98e-01     6s
  13  -7.87190746e+00 -3.56472981e+04  1.64e+03 6.73e-11  1.34e-01     6s
  14  -6.00364174e+00 -2.35727445e+04  1.24e+03 4.44e-11  9.20e-02     6s
  15  -5.09492948e+00 -1.69815688e+04  1.04e+03 2.98e-11  7.00e-02     6s
  16  -3.47465319e+00 -1.44139380e+04  6.95e+02 2.43e-11  5.18e-02     6s
  17  -2.16726068e+00 -1.19307282e+04  4.14e+02 2.11e-11  3.70e-02     6s
  18  -1.59057186e+00 -9.19063757e+03  2.91e+02 1.69e-11  2.83e-02     6s
  19  -1.19233812e+00 -7.97232791e+03  2.08e+02 1.50e-11  2.32e-02     6s
  20  -9.77851514e-01 -6.71643919e+03  1.65e+02 1.31e-11  1.97e-02     6s
  21  -8.67382687e-01 -5.36278447e+03  1.43e+02 1.10e-11  1.66e-02     6s
  22  -6.37149690e-01 -4.84714286e+03  9.74e+01 9.94e-12  1.37e-02     6s
  23  -5.09104961e-01 -4.56562623e+03  7.02e+01 9.45e-12  1.20e-02     6s
  24  -3.80515734e-01 -3.59733245e+03  3.56e+01 7.49e-12  9.14e-03     7s
  25  -2.59968994e-01 -2.43469057e+03  2.24e+00 5.07e-12  5.86e-03     7s
  26  -1.90751907e-01 -1.85084228e+03  1.21e+00 3.93e-12  4.13e-03     7s
  27  -1.56196530e-01 -1.32244408e+03  6.89e-01 2.74e-12  2.82e-03     7s
  28  -1.40993846e-01 -9.78953121e+02  4.61e-01 2.02e-12  2.04e-03     7s
  29  -1.31401151e-01 -7.37530305e+02  3.14e-01 1.49e-12  1.51e-03     7s
  30  -1.27314346e-01 -6.18450999e+02  2.54e-01 1.23e-12  1.25e-03     7s
  31  -1.19551933e-01 -5.03344590e+02  1.40e-01 9.86e-13  9.86e-04     7s
  32  -1.15053193e-01 -3.54485578e+02  7.40e-02 6.81e-13  6.81e-04     7s
  33  -1.13052785e-01 -2.56234235e+02  4.41e-02 4.92e-13  4.87e-04     7s
  34  -1.11682222e-01 -1.76306437e+02  2.33e-02 4.16e-13  3.32e-04     7s
  35  -1.11131756e-01 -1.38424863e+02  1.43e-02 4.59e-13  2.59e-04     7s
  36  -1.10571930e-01 -9.68370624e+01  4.39e-03 4.46e-13  1.80e-04     7s
  37  -1.10537909e-01 -6.93218812e+01  1.46e-03 4.98e-13  1.29e-04     7s
  38  -1.10929169e-01 -1.15447030e+01  5.14e-05 2.57e-13  2.12e-05     7s
  39  -1.12059729e-01 -6.01893733e+00  8.03e-06 3.01e-13  1.10e-05     7s
  40  -1.13108230e-01 -2.32620047e+00  2.50e-06 3.30e-13  4.10e-06     7s
  41  -1.15021679e-01 -1.19593415e+00  9.32e-07 4.29e-13  2.00e-06     7s
  42  -1.18113870e-01 -8.82861261e-01  5.14e-07 3.80e-13  1.42e-06     7s
  43  -1.19792309e-01 -6.49053312e-01  3.78e-07 4.06e-13  9.82e-07     7s
  44  -1.24594332e-01 -5.28736333e-01  2.06e-07 4.71e-13  7.50e-07     8s
  45  -1.29256644e-01 -4.56473992e-01  1.38e-07 4.59e-13  6.07e-07     8s
  46  -1.32629224e-01 -3.82673609e-01  1.01e-07 5.03e-13  4.64e-07     8s
  47  -1.36121420e-01 -3.11458714e-01  7.58e-08 4.26e-13  3.25e-07     8s
  48  -1.40585834e-01 -2.85589723e-01  5.64e-08 5.00e-13  2.69e-07     8s
  49  -1.44934088e-01 -2.61960257e-01  4.06e-08 5.61e-13  2.17e-07     8s
  50  -1.47431279e-01 -2.44795630e-01  3.54e-08 5.67e-13  1.81e-07     8s
  51  -1.50990086e-01 -2.18437603e-01  2.72e-08 5.04e-13  1.25e-07     8s
  52  -1.54004494e-01 -2.12304613e-01  2.12e-08 5.66e-13  1.08e-07     8s
  53  -1.57318672e-01 -2.04498346e-01  1.57e-08 5.72e-13  8.75e-08     8s
  54  -1.60168231e-01 -1.98010010e-01  1.17e-08 1.82e-11  7.02e-08     8s
  55  -1.61972624e-01 -1.92832807e-01  9.50e-09 2.40e-11  5.72e-08     8s
  56  -1.64097901e-01 -1.90696654e-01  7.19e-09 3.21e-11  4.93e-08     8s
  57  -1.66541943e-01 -1.83819276e-01  5.00e-09 2.04e-11  3.20e-08     8s
  58  -1.67437445e-01 -1.82350764e-01  4.17e-09 2.50e-11  2.77e-08     8s
  59  -1.68635099e-01 -1.78207845e-01  3.15e-09 1.36e-11  1.78e-08     9s
  60  -1.70464757e-01 -1.76695984e-01  1.63e-09 1.33e-11  1.16e-08     9s
  61  -1.71283822e-01 -1.74756307e-01  1.01e-09 7.54e-12  6.44e-09     9s
  62  -1.71904568e-01 -1.74401524e-01  5.16e-10 6.83e-12  4.63e-09     9s
  63  -1.72067966e-01 -1.73500053e-01  4.00e-10 6.23e-12  2.66e-09     9s
  64  -1.72145206e-01 -1.73104078e-01  3.48e-10 8.38e-12  1.78e-09     9s
  65  -1.72425258e-01 -1.72922004e-01  1.60e-10 6.19e-12  9.21e-10     9s
  66  -1.72566241e-01 -1.72805098e-01  6.69e-11 3.44e-12  4.43e-10     9s
  67  -1.72613361e-01 -1.72751403e-01  3.66e-11 2.87e-12  2.56e-10     9s
  68  -1.72647128e-01 -1.72749464e-01  1.71e-11 2.80e-12  1.90e-10     9s
  69  -1.72670948e-01 -1.72680075e-01  7.05e-12 5.86e-13  1.69e-11     9s
  70  -1.72676940e-01 -1.72677075e-01  1.13e-10 3.00e-13  2.50e-13     9s
  71  -1.72677042e-01 -1.72677042e-01  1.29e-11 2.26e-13  1.71e-16     9s

Barrier solved model in 71 iterations and 9.11 seconds (17.99 work units)
Optimal objective -1.72677042e-01


Root crossover log...

    6331 DPushes remaining with DInf 0.0000000e+00                 9s
       0 DPushes remaining with DInf 2.7517200e-05                 9s

    2167 PPushes remaining with PInf 0.0000000e+00                 9s
       0 PPushes remaining with PInf 0.0000000e+00                 9s

  Push phase complete: Pinf 0.0000000e+00, Dinf 2.7517200e-05      9s


Root simplex log...

Iteration    Objective       Primal Inf.    Dual Inf.      Time
    8401   -1.7267704e-01   0.000000e+00   2.751720e-05      9s
    8402   -1.7267704e-01   0.000000e+00   0.000000e+00      9s
Concurrent spin time: 0.00s

Solved with barrier
    8402   -1.7267704e-01   0.000000e+00   0.000000e+00      9s

Root relaxation: objective -1.726770e-01, 8402 iterations, 5.03 seconds (6.46 work units)

    Nodes    |    Current Node    |     Objective Bounds      |     Work
 Expl Unexpl |  Obj  Depth IntInf | Incumbent    BestBd   Gap | It/Node Time

     0     0   -0.17268    0  213          -   -0.17268      -     -   10s
H    0     0                      -0.0886973   -0.17268  94.7%     -   11s
H    0     0                      -0.1696622   -0.17268  1.78%     -   12s
H    0     0                      -0.1706586   -0.17268  1.18%     -   13s
     0     0   -0.17266    0  220   -0.17066   -0.17266  1.17%     -   14s
     0     0   -0.17266    0  195   -0.17066   -0.17266  1.17%     -   22s
     0     0   -0.17265    0  252   -0.17066   -0.17265  1.17%     -   25s
H    0     0                      -0.1717504   -0.17265  0.52%     -   28s
     0     0   -0.17265    0  251   -0.17175   -0.17265  0.52%     -   28s
     0     0   -0.17265    0  253   -0.17175   -0.17265  0.52%     -   29s
     0     0   -0.17265    0  180   -0.17175   -0.17265  0.52%     -   32s
     0     0   -0.17255    0  252   -0.17175   -0.17255  0.47%     -   33s
     0     0   -0.17252    0  237   -0.17175   -0.17252  0.45%     -   33s
     0     0   -0.17252    0  254   -0.17175   -0.17252  0.45%     -   34s
     0     0   -0.17252    0  269   -0.17175   -0.17252  0.45%     -   34s
     0     0   -0.17252    0  263   -0.17175   -0.17252  0.45%     -   34s
     0     0   -0.17252    0  261   -0.17175   -0.17252  0.45%     -   34s
H    0     0                      -0.1717552   -0.17252  0.45%     -   35s
     0     0   -0.17252    0  229   -0.17176   -0.17252  0.45%     -   35s
     0     0   -0.17251    0  229   -0.17176   -0.17251  0.44%     -   35s
     0     0   -0.17251    0  205   -0.17176   -0.17251  0.44%     -   36s
     0     0   -0.17251    0  212   -0.17176   -0.17251  0.44%     -   36s
     0     0   -0.17250    0  216   -0.17176   -0.17250  0.44%     -   36s
     0     0   -0.17250    0  212   -0.17176   -0.17250  0.44%     -   36s
     0     0   -0.17247    0  202   -0.17176   -0.17247  0.42%     -   37s
     0     0   -0.17247    0  195   -0.17176   -0.17247  0.42%     -   37s
     0     2   -0.17247    0  195   -0.17176   -0.17247  0.42%     -   38s
    13    14   -0.17247    4  222   -0.17176   -0.17247  0.42%   901   40s
   101    71   -0.17182   12  148   -0.17176   -0.17247  0.42%   347   45s
   490    89     cutoff   23        -0.17176   -0.17233  0.33%   164   50s

Cutting planes:
  Gomory: 2
  Clique: 3
  Zero half: 37

Explored 1306 nodes (383130 simplex iterations) in 54.09 seconds (87.80 work units)
Thread count was 10 (of 64 available processors)

Solution count 5: -0.171755 -0.17175 -0.170659 ... -0.0886973

Optimal solution found (tolerance 1.00e-04)
Best objective -1.717551901031e-01, best bound -1.717551901031e-01, gap 0.0000%

User-callback calls 5560, time in user-callback 0.00 sec
